NAME: line_44_3
TYPE: TSP
COMMENT: srandom_44_3
DIMENSION: 44
EDGE_WEIGHT_TYPE: EUC_2D
NODE_COORD_SECTION
1 2255 1201
2 2855 4449
3 1820 1669
4 2948 97
5 3864 4323
6 1524 1217
7 690 3192
8 2957 3928
9 372 4223
10 1443 3607
11 1296 1091
12 4932 632
13 3043 96
14 4359 1657
15 3519 3035
16 664 3077
17 3005 2210
18 2436 4556
19 3681 912
20 2794 2303
21 2921 4979
22 2897 2002
23 1731 3724
24 1774 1397
25 1670 2800
26 2745 3029
27 1173 989
28 3385 1188
29 1513 2203
30 3902 662
31 2051 3592
32 4865 2320
33 1795 3748
34 1222 2678
35 4027 2249
36 3170 4508
37 3159 4633
38 1842 1754
39 2337 2239
40 152 1080
41 3837 3399
42 2744 2320
43 2065 1867
44 2730 3365
